nbNodes = 12;
nbVehi = 5;
nbServi = 5;

e = 
 [|    0,  411,  446,  479,  316,  422,  110,  268,   22,  445,  185,    0,
 |    0,   60,  274,  248,  451,  171,  425,  105,  385,   93,  471,    0,
 |    0,   65,  263,  277,  386,  155,   99,   19,  470,   57,  316,    0,
 |    0,  103,  361,  184,  327,   20,  328,  448,  433,  410,    4,    0,
 |    0,  444,  330,   26,  249,  308,  343,  374,  139,   37,  370,    0,
 |];

l = 
 [| 480, 469, 496, 524, 349, 454, 157, 298,  57, 487, 242, 480,
 | 480, 100, 325, 287, 489, 206, 478, 165, 423, 133, 510, 480,
 | 480, 115, 313, 333, 430, 210, 131,  72, 526, 107, 367, 480,
 | 480, 140, 419, 237, 374,  63, 370, 495, 485, 462,  51, 480,
 | 480, 488, 378,  67, 285, 352, 396, 411, 192,  89, 400, 480,
 |];

a = 
 [|  1,  1,  1,  1,  1,
 |  1,  1,  1,  1,  1,
 |  1,  1,  1,  1,  1,
 |  1,  1,  1,  1,  1,
 |  1,  1,  1,  1,  1,
 |];

p = array3d(1..nbNodes,1..nbVehi,1..nbServi,
[  0,  0,  0,  0,  0,	  0,  0,  0,  0,  0,	  0,  0,  0,  0,  0,	  0,  0,  0,  0,  0,	  0,  0,  0,  0,  0,	
 15, 29, 22,  5, 18,	  7, 11, 25, 22,  7,	  8, 28, 13, 22, 23,	 16, 15,  5, 25, 26,	 21,  7, 23,  9, 26,	
 22, 11, 14, 27,  5,	 20, 13,  5, 12, 15,	 20, 14, 23, 15,  8,	 28, 20,  9, 11, 13,	 27, 22, 25, 29, 17,	
 21, 21, 19, 17, 27,	 15,  9, 10, 24,  8,	 11, 16, 18, 11, 24,	  6, 26, 10, 24, 14,	 14, 24, 29, 18,  5,	
 14, 17, 25, 10, 16,	 14, 28,  7, 29, 17,	  7, 16, 23, 12, 13,	 27, 18, 24, 15, 24,	 20, 16, 23, 26, 13,	
  7, 12,  7,  8, 27,	 10, 18, 14,  5, 25,	 25, 14, 25,  5, 15,	 13,  7, 29,  8, 14,	 12,  5,  5,  8, 18,	
 26, 24,  6, 19, 22,	 14, 23, 29, 19, 27,	 26, 24, 17, 10, 26,	 14,  7, 12,  9,  7,	 25, 19, 11, 24, 23,	
 21,  8, 23, 21, 11,	 13, 17,  7, 15,  9,	 24, 26, 27, 25, 15,	 26, 21, 11, 15, 28,	  7, 24,  8, 17,  6,	
 12, 12, 20, 19,  8,	 13, 10, 11,  9, 28,	 17, 17, 17, 20, 29,	 23, 16, 26, 23, 12,	 11, 19,  5, 20,  7,	
  6, 22, 26,  9, 11,	 27, 16, 20, 20,  5,	 23, 28, 12, 29,  7,	 12, 19, 22, 27, 11,	 21, 20, 22, 19, 13,	
  6, 28,  5,  7, 18,	  7, 10, 12,  5, 14,	 19,  5, 27,  9, 20,	  5,  5, 20, 14, 29,	 25, 22, 20, 17, 21,	
  0,  0,  0,  0,  0,	  0,  0,  0,  0,  0,	  0,  0,  0,  0,  0,	  0,  0,  0,  0,  0,	  0,  0,  0,  0,  0,	
]);

rs = 
[|true,true,true,true,true,
 |true,false,false,false,false,
 |false,true,false,false,false,
 |false,true,false,false,false,
 |false,false,true,false,false,
 |false,false,true,false,false,
 |false,false,false,false,true,
 |true,false,false,false,false,
 |false,false,false,false,true,
 |false,false,false,true,false,
 |false,false,false,true,false,
 |true,true,true,true,true,
 |];

d=[|0, 12, 24, 21, 0, 17, 6, 8, 9, 8, 23, 0, 
|12, 0, 30, 28, 12, 25, 12, 20, 13, 15, 21, 12, 
|24, 30, 0, 2, 24, 8, 19, 21, 17, 16, 18, 24, 
|21, 28, 2, 0, 21, 6, 17, 18, 14, 13, 17, 21, 
|0, 12, 24, 21, 0, 17, 6, 8, 9, 8, 23, 0, 
|17, 25, 8, 6, 17, 0, 13, 13, 12, 10, 20, 17, 
|6, 12, 19, 17, 6, 13, 0, 10, 3, 3, 17, 6, 
|8, 20, 21, 18, 8, 13, 10, 0, 12, 10, 26, 8, 
|9, 13, 17, 14, 9, 12, 3, 12, 0, 2, 14, 9, 
|8, 15, 16, 13, 8, 10, 3, 10, 2, 0, 16, 8, 
|23, 21, 18, 17, 23, 20, 17, 26, 14, 16, 0, 23, 
|0, 12, 24, 21, 0, 17, 6, 8, 9, 8, 23, 0, 
|];

%coord=[ (0,0), (4,-12), (19,15), (17,13), (0,0), (11,13), (6,0), (-1,8), (9,1), (8,3), (23,-3), (0,0), ];

